\ Model p-center
\ LP format - for model browsing. Use MPS format to capture full model detail.
Minimize
  0.5 L + 0.5 eta
Subject To
 epigraph[0]: 2561.060153075275 x[0,1] + 1889.782150667747 x[0,2] - L <= 0
 epigraph[1]: 2631.265805046857 x[1,0] + 1194.494374121905 x[1,2] - L <= 0
 epigraph[2]: 2068.065612279455 x[2,0] + 1272.306472295186 x[2,1] - L <= 0
 p: y[0] + y[1] + y[2] = 1
 x<y[0,0]: x[0,0] - y[0] <= 0
 x<y[0,1]: x[0,1] - y[1] <= 0
 x<y[0,2]: x[0,2] - y[2] <= 0
 x<y[1,0]: x[1,0] - y[0] <= 0
 x<y[1,1]: x[1,1] - y[1] <= 0
 x<y[1,2]: x[1,2] - y[2] <= 0
 x<y[2,0]: x[2,0] - y[0] <= 0
 x<y[2,1]: x[2,1] - y[1] <= 0
 x<y[2,2]: x[2,2] - y[2] <= 0
 sumx[0]: x[0,0] + x[0,1] + x[0,2] = 1
 sumx[1]: x[1,0] + x[1,1] + x[1,2] = 1
 sumx[2]: x[2,0] + x[2,1] + x[2,2] = 1
 eta>k[0]: - L3[0] + eta >= 0
 eta>k[1]: - L3[1] + eta >= 0
 sumcdv<L3k[0,0]: 3246.639321204338 v[0,0,1] + 981.7931943398505 v[0,0,2]
   - L3[0] <= 0
 sumcdv<L3k[0,1]: 1940.557740501082 v[0,1,0] + 650.3715921020806 v[0,1,2]
   - L3[0] <= 0
 sumcdv<L3k[0,2]: 1682.100427706814 v[0,2,0] + 1275.073818342067 v[0,2,1]
   - L3[0] <= 0
 sumcdv<L3k[1,0]: 5182.143562254829 v[1,0,1] + 1463.339463868784 v[1,0,2]
   - L3[1] <= 0
 sumcdv<L3k[1,1]: 2505.192841739722 v[1,1,0] + 1028.655438081741 v[1,1,2]
   - L3[1] <= 0
 sumcdv<L3k[1,2]: 1579.067009863555 v[1,2,0] + 1059.019806043569 v[1,2,1]
   - L3[1] <= 0
 v<y+u[0,0,0]: - y[0] + v[0,0,0] - u[0,0] <= 0
 v<y+u[0,0,1]: - y[1] + v[0,0,1] - u[0,1] <= 0
 v<y+u[0,0,2]: - y[2] + v[0,0,2] - u[0,2] <= 0
 v<y+u[0,1,0]: - y[0] + v[0,1,0] - u[0,0] <= 0
 v<y+u[0,1,1]: - y[1] + v[0,1,1] - u[0,1] <= 0
 v<y+u[0,1,2]: - y[2] + v[0,1,2] - u[0,2] <= 0
 v<y+u[0,2,0]: - y[0] + v[0,2,0] - u[0,0] <= 0
 v<y+u[0,2,1]: - y[1] + v[0,2,1] - u[0,1] <= 0
 v<y+u[0,2,2]: - y[2] + v[0,2,2] - u[0,2] <= 0
 v<y+u[1,0,0]: - y[0] + v[1,0,0] - u[1,0] <= 0
 v<y+u[1,0,1]: - y[1] + v[1,0,1] - u[1,1] <= 0
 v<y+u[1,0,2]: - y[2] + v[1,0,2] - u[1,2] <= 0
 v<y+u[1,1,0]: - y[0] + v[1,1,0] - u[1,0] <= 0
 v<y+u[1,1,1]: - y[1] + v[1,1,1] - u[1,1] <= 0
 v<y+u[1,1,2]: - y[2] + v[1,1,2] - u[1,2] <= 0
 v<y+u[1,2,0]: - y[0] + v[1,2,0] - u[1,0] <= 0
 v<y+u[1,2,1]: - y[1] + v[1,2,1] - u[1,1] <= 0
 v<y+u[1,2,2]: - y[2] + v[1,2,2] - u[1,2] <= 0
 v<1-ak[0,0,0]: v[0,0,0] <= 0
 v<1-ak[0,0,1]: v[0,0,1] <= 1
 v<1-ak[0,0,2]: v[0,0,2] <= 1
 v<1-ak[0,1,0]: v[0,1,0] <= 0
 v<1-ak[0,1,1]: v[0,1,1] <= 1
 v<1-ak[0,1,2]: v[0,1,2] <= 1
 v<1-ak[0,2,0]: v[0,2,0] <= 0
 v<1-ak[0,2,1]: v[0,2,1] <= 1
 v<1-ak[0,2,2]: v[0,2,2] <= 1
 v<1-ak[1,0,0]: v[1,0,0] <= 1
 v<1-ak[1,0,1]: v[1,0,1] <= 1
 v<1-ak[1,0,2]: v[1,0,2] <= 0
 v<1-ak[1,1,0]: v[1,1,0] <= 1
 v<1-ak[1,1,1]: v[1,1,1] <= 1
 v<1-ak[1,1,2]: v[1,1,2] <= 0
 v<1-ak[1,2,0]: v[1,2,0] <= 1
 v<1-ak[1,2,1]: v[1,2,1] <= 1
 v<1-ak[1,2,2]: v[1,2,2] <= 0
 sumv[0,0]: v[0,0,0] + v[0,0,1] + v[0,0,2] = 1
 sumv[0,1]: v[0,1,0] + v[0,1,1] + v[0,1,2] = 1
 sumv[0,2]: v[0,2,0] + v[0,2,1] + v[0,2,2] = 1
 sumv[1,0]: v[1,0,0] + v[1,0,1] + v[1,0,2] = 1
 sumv[1,1]: v[1,1,0] + v[1,1,1] + v[1,1,2] = 1
 sumv[1,2]: v[1,2,0] + v[1,2,1] + v[1,2,2] = 1
 u+y<1[0,0]: y[0] + u[0,0] <= 1
 u+y<1[0,1]: y[1] + u[0,1] <= 1
 u+y<1[0,2]: y[2] + u[0,2] <= 1
 u+y<1[1,0]: y[0] + u[1,0] <= 1
 u+y<1[1,1]: y[1] + u[1,1] <= 1
 u+y<1[1,2]: y[2] + u[1,2] <= 1
 u+ak<1[0,0]: u[0,0] <= 0
 u+ak<1[0,1]: u[0,1] <= 1
 u+ak<1[0,2]: u[0,2] <= 1
 u+ak<1[1,0]: u[1,0] <= 1
 u+ak<1[1,1]: u[1,1] <= 1
 u+ak<1[1,2]: u[1,2] <= 0
 2S-p[0]: y[1] + y[2] + u[0,0] + u[0,1] + u[0,2] = 1
 2S-p[1]: y[0] + y[1] + u[1,0] + u[1,1] + u[1,2] = 1
Bounds
Binaries
 x[0,0] x[0,1] x[0,2] x[1,0] x[1,1] x[1,2] x[2,0] x[2,1] x[2,2] y[0] y[1]
 y[2]
End
